% N = 3;
% Di = 6;
% time_slot_val = 1;
% battery = 19;
% b = [19, 19, 19]; % 100, 60, 80
% c = [0.2, 0.5, 0.1];

%%%%%%%%%%%%%%%%%%%%%%%%%%%%%%%%%%%%%%%%%%%%%%%%%%%%%%%5

% N = 3;
% Di = 3;
% time_slot_val = 1;
% battery = 19;
% b = [18, 16, 18]; % 100, 60, 80
% c = [0.4, 0.8, 0.1];

%%%%%%%%%%%%%%%%%%%%%%%%%%%%%%%%%%%%%%%%%%%%%%%%%%%%%%%%

N = 3;
Di = 3;
time_slot_val = 3.6111e-05;
battery = 19;
b = [18.9997665323902, 18.999768767751, 18.9997697515383];
c = [1.1341733952008326e-07, 3.4165477558190105e-08, 6.796341267545358e-12];
